  48
         -8.23009939
 Cl         4.6999033689       -1.9475588344       -0.2494883884
 N         -2.2075786676       -1.5802592941        0.1039090812
 N         -1.2549029220        1.2956183113        0.2945895730
 N          2.7249721445        2.7187842914        0.0404224902
 C         -3.7179217096        1.4220906049        0.6387084427
 C         -4.1397359552        0.1030586136       -0.0419542554
 C         -2.4561125522        2.1085698827        0.0888048293
 C         -3.5505933391       -1.1683060126        0.5852060448
 C         -2.5968074057        2.5023706554       -1.3756939041
 C         -2.1155152453       -1.8194538972       -1.3732218569
 C         -1.6723393018       -2.6935645702        0.9323651651
 C          0.0565846650        1.7475801762        0.1979183877
 C          1.1552001169        0.8474640587        0.0885952566
 C         -3.0769470253       -2.8676545173       -1.8926559981
 C         -1.2581437337       -2.2665461944        2.3286464841
 C          0.3674059673        3.0913565430        0.2126480652
 C          2.4666983582        1.3835674711        0.0183092696
 C          0.9838120067       -0.5496320164        0.0364188248
 C          1.6855589508        3.5076866748        0.1324203561
 C          3.5485399982        0.4893462064       -0.0846215545
 C          2.0518158676       -1.3894973663       -0.0651840809
 C          3.3487139127       -0.8678377212       -0.1236339938
 H         -3.5871130491        1.2413686909        1.7112514468
 H         -4.5435210307        2.1424410770        0.5702025208
 H         -3.9174357585        0.1379496976       -1.1114957813
 H         -5.2358042210        0.0267864042       -0.0000821006
 H         -2.3013878309        3.0253058329        0.6811435629
 H         -3.5056185168       -1.0384904357        1.6693832349
 H         -4.2207887459       -2.0189358183        0.4254742264
 H         -1.4921182996        0.2988416367        0.2212053343
 H         -3.4883310132        3.1072617110       -1.5455695082
 H         -2.6649108525        1.6204112152       -2.0102472031
 H         -1.7316614416        3.0712145294       -1.7175968778
 H         -2.2627906116       -0.8657202360       -1.8874392739
 H         -1.0830976421       -2.1063463470       -1.6002564861
 H         -2.4202225382       -3.4917574147        0.9718971999
 H         -0.8136689204       -3.1216037116        0.4044727604
 H         -4.1145477731       -2.5631269196       -1.7507459725
 H         -2.9377825557       -3.0552400567       -2.9594315795
 H         -2.9437226101       -3.8174767753       -1.3734227320
 H         -0.5833325711       -1.4104368609        2.2938259976
 H         -2.1154871794       -1.9731988665        2.9349029381
 H         -0.7449989475       -3.0679504407        2.8642075840
 H         -0.4168033193        3.8217256166        0.2964363128
 H         -0.0098194084       -0.9541645947        0.0668942842
 H          1.8976652882        4.5659428155        0.1489978836
 H          4.5448519564        0.8928183417       -0.1347976610
 H          1.9176502334       -2.4574390754       -0.1046832714
