  43
         -7.79069148
 F         -2.3559569949       -3.5053635438        0.4390559300
 C         -2.6140046692       -2.1850943721        0.3995059895
 F         -3.8576019500       -1.9603674120       -0.0564717263
 F         -2.4666421671       -1.6387315865        1.6205839459
 C         -1.6344795687       -1.5081583409       -0.5312712729
 N         -0.3278292721       -1.6673901888       -0.5110022240
 N          0.2391536457       -0.6812771262       -1.1658498764
 C         -0.7045860446        0.1062087354       -1.6349380730
 N         -1.9284386546       -0.3794340923       -1.2499129688
 C         -3.2017458419        0.3628987516       -1.3224984003
 H         -3.6548369442        0.3151830032       -0.3270713301
 C         -2.9889244960        1.8169116208       -1.7547015333
 N         -1.6472076953        2.2635145180       -1.3483178237
 C         -1.5219631651        2.6080490730        0.0005658512
 O         -2.4967961042        2.9827682130        0.6244700370
 C         -0.2420301930        2.3941220193        0.7472983623
 H         -0.1271237937        3.1907724195        1.4858836448
 H          0.6197567662        2.4667989170        0.0829869524
 C         -0.2862212554        1.0379665687        1.4672996775
 N         -1.4156689610        0.9870619196        2.4015909258
 H         -2.1085613334        1.6584530118        2.0868907674
 H         -1.8443707313        0.0695767423        2.3641907175
 H         -0.4764840921        0.2633451705        0.7050161269
 C          1.0261219398        0.6770846593        2.1758805693
 C          2.1170639494        0.2857983887        1.2362461659
 C          2.4133714991       -1.0397315494        0.9719811028
 C          3.4064700037       -1.3799718455        0.0757339835
 C          4.1189949212       -0.3847369378       -0.5811668052
 C          3.8248914939        0.9374563612       -0.3325719075
 C          2.8289097679        1.2742118499        0.5609702228
 F          2.5087273051        2.5720842302        0.7481515576
 H          4.3731556504        1.7132565126       -0.8395095081
 F          5.0842559483       -0.7211719867       -1.4560129932
 F          3.7020394001       -2.6724668504       -0.1632581617
 H          1.8585370352       -1.8305680903        1.4450653102
 H          1.3519251426        1.5291723678        2.7796017172
 H          0.8393750094       -0.1379960064        2.8820015837
 C         -0.5761131362        1.5230458808       -2.0499289260
 H         -0.7129260928        1.6188690337       -3.1297832234
 H          0.4115040846        1.9230633993       -1.8127998364
 H         -3.0863703224        1.9315585373       -2.8378638171
 H         -3.7205187089        2.4870553070       -1.2890153356
 H         -3.8718395641       -0.1755093048       -1.9998068356
