  40
         -7.90788860
 S          4.7956604713        1.0850800348       -0.0160116994
 O          5.2300545053        1.1713245422        1.4106507192
 O          5.3089810956        0.0567752266       -0.9706541814
 N          4.9700305512        2.6223485577       -0.7266966175
 H          5.4556601948        3.2116137630       -0.0795691683
 H          5.5300028782        2.5276111571       -1.5515956488
 C          3.0085505926        0.9701793942       -0.0252055279
 C          2.2876662932        1.4267928516        1.0542281697
 C          0.9140482794        1.3206628719        1.0544753577
 C          0.2638783066        0.7472916276       -0.0274217456
 C          0.9990120071        0.3108962622       -1.1196882432
 C          2.3714786851        0.4209302897       -1.1135187287
 H          2.9582388156        0.0696100447       -1.9469292688
 H          0.4847419608       -0.1211110907       -1.9607039087
 N         -1.1657987465        0.5715526286        0.0060845936
 C         -1.8499764177       -0.6472224622        0.0109114521
 C         -3.1734431280       -0.2918994284       -0.0095551331
 C         -3.2084053773        1.1034196420       -0.0101175678
 N         -1.9954731066        1.6120105357        0.0020564835
 C         -4.4755570469        1.9333576277       -0.0135116163
 F         -4.5058036593        2.6822402476        1.1061177970
 F         -5.5363115099        1.1023441959       -0.0435692567
 F         -4.4750343092        2.7225740620       -1.1048933704
 H         -4.0330579095       -0.9401040237        0.0008526251
 C         -1.2848824496       -1.9951761942        0.0418755758
 C         -2.0039851596       -3.0827626933       -0.4484096447
 C         -1.4734154729       -4.3526037863       -0.4145003060
 C         -0.2080184710       -4.5847015153        0.1059650651
 C          0.5046415058       -3.5068166715        0.6093984528
 C         -0.0222932762       -2.2363650593        0.5768334008
 H          0.5417359065       -1.4131981583        0.9773030118
 H          1.4814514847       -3.6735936077        1.0305516271
 C          0.3527181284       -5.9616169116        0.1631390367
 H          1.4402353926       -5.9459000513        0.0913050971
 H          0.0835697890       -6.4497020835        1.0998482497
 H         -0.0236783648       -6.5736559511       -0.6567396905
 H         -2.0440713284       -5.1821793825       -0.7958744105
 H         -2.9828714000       -2.9194204838       -0.8661910834
 H          0.3297651443        1.6707806824        1.8885884510
 H          2.8114315391        1.8520312632        1.8954542747
