  41
         -7.53049026
 S          0.0678510956        0.4336175660        0.7853510779
 O          2.0687568233       -2.9913331718       -0.7848359923
 O          4.5054289080        1.3997174364       -0.6937704175
 O          2.4007563727        2.1928648389       -0.8524086106
 O         -2.7395580027       -2.3468249349        1.2480093284
 N          1.7098610192       -0.6172753559       -0.9997702371
 N         -0.8779380350       -2.3411843966       -0.0432455171
 C          0.2870931176       -0.2312471545       -0.8767662098
 C          1.8063118984        0.1876408788        1.2958103011
 C          2.6266129725        0.0005559489       -0.0186359982
 C         -0.0806954123       -1.7225550742       -1.0972376816
 C          1.4079469051       -1.9918180454       -0.9769118412
 C          2.2575861856        1.4180156355        2.0750492039
 C          1.8976808999       -1.0687245675        2.1563725192
 C          3.1651363310        1.2999733955       -0.5685459626
 C         -2.1956653271       -2.0280305819        0.2085152163
 C         -2.9749107606       -1.2407124383       -0.8049037819
 C         -2.9478491231        0.2262665810       -0.5164690383
 C         -2.7166423951        1.1534521402       -1.5194824947
 C         -3.1664268849        0.6795510065        0.7716120102
 C         -2.6901384586        2.5017785730       -1.2345168990
 C         -3.1467662790        2.0266971157        1.0585055807
 C         -2.9053516233        2.9395878866        0.0546946610
 H         -0.0191887859        0.4640398184       -1.6713001359
 H          3.4631818002       -0.6907206577        0.1417983670
 H         -0.4552172417       -1.9581463122       -2.1037415115
 H          3.3068174952        1.3372170902        2.3582470132
 H          2.1374372528        2.3148567260        1.4665392336
 H          1.6640812497        1.5431378277        2.9800111419
 H          1.6123182740       -1.9501534540        1.5836720841
 H          2.9143854756       -1.2214750661        2.5181614757
 H          1.2346619627       -0.9967882016        3.0178808575
 H         -0.3437609824       -2.8553405390        0.6526149834
 H          4.6979556988        2.2778063096       -1.0738047390
 H         -4.0102779257       -1.5924645885       -0.7942189572
 H         -2.5934249316       -1.4417168780       -1.8086060470
 H         -2.5531472207        0.8111145133       -2.5271518681
 H         -3.3324395059       -0.0455675550        1.5510487532
 H         -2.4984384891        3.2141850106       -2.0202618736
 H         -3.3120999378        2.3648662620        2.0683593839
 H         -2.8821157167        3.9937835373        0.2776013127
