  26
         -3.73474972
 C         -4.4639524725       -0.2650294214        0.0004350059
 H         -4.5290409716       -0.9102161649        0.8789092518
 H         -5.3463785739        0.3794403739        0.0004512187
 C         -3.1706365216        0.5350398165       -0.0000551765
 H         -3.1393631863        1.2031868630       -0.8709476378
 H         -3.1390123289        1.2036400530        0.8705083564
 H         -4.5294480510       -0.9107338904       -0.8776373431
 C         -1.9257551574       -0.3530907556       -0.0000732000
 H         -1.9493086856       -1.0204627375        0.8702479523
 H         -1.9495133632       -1.0207255768       -0.8701898904
 C         -0.6216791482        0.4443782539       -0.0003442112
 H         -0.5977774889        1.1114858627       -0.8706537675
 H         -0.5976065450        1.1118176789        0.8698562866
 C          0.6214789224       -0.4441366786       -0.0003009317
 H          0.5975365794       -1.1114772707       -0.8707360157
 H          0.5973838431       -1.1114770347        0.8699157889
 C          1.9255249895        0.3532804521       -0.0001308885
 H          1.9491769682        1.0206414871        0.8700693483
 H          1.9493511700        1.0208081886       -0.8703696545
 C          3.1708024589       -0.5352789230       -0.0000512104
 H          3.1390963813       -1.2038083187        0.8705085133
 H          3.1395057661       -1.2034372100       -0.8710419220
 C          4.4642059336        0.2648613195        0.0004539879
 H          4.5292873308        0.9100859417        0.8789900087
 H          4.5296667500        0.9105080919       -0.8775575304
 H          5.3465754257       -0.3795630787        0.0004709419
