  40
        -58.44698858
 S          3.6641957538       -0.9790383520       -0.4592423793
 C          3.9272487709       -1.9922258478        0.9070196565
 C          2.9558934553       -1.8493394388        1.8406545476
 C          1.9746505372       -0.9028110085        1.4653222964
 C          2.2147066088       -0.3471767088        0.2483106973
 C          1.4202915161        0.7116208549       -0.4570620345
 C          1.9612552130        2.1022109521       -0.0915799108
 H          1.7433244363        2.2890268873        0.9607696140
 H          3.0446303207        2.0890770850       -0.2206120712
 C          1.3703300691        3.2253898820       -0.9648210530
 N         -0.0323575155        3.5206852205       -0.7840721773
 H         -0.5778353923        2.6727345592       -0.9038138526
 C         -0.3662085817        4.1361981451        0.4830762823
 H          0.2074114619        5.0582310261        0.5858887226
 H         -0.1668516089        3.5063748718        1.3620806301
 H         -1.4261390220        4.3870762262        0.4744371022
 H          1.9279637321        4.1461418389       -0.7668717269
 H          1.5148692484        2.9632743043       -2.0182120526
 O          0.0603611101        0.6717857332       -0.0682852446
 C         -0.7075921514       -0.3987466487       -0.4219201127
 C         -0.2743239347       -1.4745905986       -1.1561202144
 C         -1.1579665874       -2.5163106885       -1.4755445526
 C         -2.4594896042       -2.4874207989       -1.0677992382
 C         -2.9414393070       -1.3995531942       -0.3095387473
 C         -4.2790643903       -1.3312096261        0.1318438953
 C         -4.7244930332       -0.2680603703        0.8664939789
 C         -3.8502096786        0.7770076401        1.1971109670
 C         -2.5468373151        0.7417601251        0.7848474885
 C         -2.0613130558       -0.3394601892        0.0231720253
 H         -1.8680971731        1.5403849930        1.0396002826
 H         -4.2137127812        1.6103248999        1.7804644175
 H         -5.7517872665       -0.2263774745        1.1983700829
 H         -4.9476987661       -2.1407965690       -0.1243062470
 H         -3.1356619399       -3.2919160474       -1.3163936560
 H         -0.7840298456       -3.3481328419       -2.0541549943
 H          0.7466051617       -1.5467031228       -1.4958236353
 H          1.5045510123        0.5749309064       -1.5474852377
 H          1.1202498919       -0.6532146992        2.0687103939
 H          2.9329499405       -2.3946036246        2.7669367960
 H          4.7888137130       -2.6291336862        0.9260494162
