  44
         -7.43560398
 O          1.7260836626        0.3744802947        1.3305047048
 C          1.7796939436        0.6012355002        0.1386671606
 N          1.0531632300        1.5994087638       -0.4629494939
 H          1.1774481829        1.8410908849       -1.4483719515
 C          0.2236408647        2.5022336403        0.3277199151
 C          0.9067470751        3.8502349635        0.4917741181
 H          1.0278617479        4.3360463802       -0.4760875557
 H          0.3305409685        4.5190749068        1.1322135611
 H          1.8994701104        3.7322287671        0.9269597181
 H          0.1283640090        2.0253408322        1.3169040442
 C         -1.1828031991        2.6279054253       -0.2734741019
 C         -1.9199504954        1.3233626731       -0.3077154224
 C         -1.8518573926        0.4988385356       -1.4201970281
 C         -2.5089692372       -0.7147806720       -1.4389399779
 C         -3.2402422607       -1.1223222530       -0.3424409948
 C         -3.3138554492       -0.3130454045        0.7720982775
 C         -2.6525166358        0.8983655614        0.7906934213
 H         -2.6992697172        1.5262923037        1.6644186218
 H         -3.8873342442       -0.6268976564        1.6297356777
 H         -3.7567203524       -2.0687444112       -0.3586670173
 H         -2.4495842888       -1.3452016979       -2.3115622374
 H         -1.2728777894        0.8136688870       -2.2718545690
 H         -1.7662728173        3.3614616127        0.2923368917
 H         -1.1028632473        3.0307734509       -1.2874394728
 C          2.6582098749       -0.2777553638       -0.7228195305
 N          4.0483846692       -0.1142642635       -0.3262931280
 H          4.1177185380       -0.3635212062        0.6504596387
 H          4.3040433987        0.8633193582       -0.3845546021
 C          2.1996109609       -1.7301385734       -0.5830831406
 H          2.3355804122       -2.0138251810        0.4644107238
 H          2.8538085989       -2.3978311754       -1.1541611511
 C          0.7339112358       -1.9134805069       -0.9856005390
 H          0.1765966065       -1.0151905755       -0.6975785886
 C          0.0579707674       -3.1241033649       -0.3470119622
 H          0.5636854295       -4.0417900772       -0.6710180276
 H         -0.9677562964       -3.2081900939       -0.7276696590
 C          0.0162306857       -3.0584001265        1.1820191524
 N         -0.3957616546       -1.7694417370        1.7119959063
 H          0.3254269911       -1.0550041092        1.5906315991
 H         -1.2211428923       -1.4261096600        1.2387873918
 H          0.9966315160       -3.3072211176        1.6061323768
 H         -0.6610322179       -3.8264791291        1.5779878214
 H          0.6526273083       -1.9510638956       -2.0795526056
 H          2.5541805034        0.0304468931       -1.7732497693
