  33
        -46.63099093
 O          3.2474762555       -1.7945389770       -0.8075538761
 C          3.1661978109       -0.8390034134        0.1233566099
 O          3.4062671068       -1.0449679705        1.2826808107
 C          2.7127211741        0.4912859625       -0.4497279871
 C          1.2063227835        0.5743921277       -0.2868301699
 C          0.3930472702        0.8173480857       -1.3881534488
 C         -0.9834759645        0.9096349673       -1.2377653333
 C         -1.5719333433        0.7615136699        0.0147509421
 C         -0.7531089419        0.5147707970        1.1153245581
 C          0.6211157196        0.4221261554        0.9683115271
 H          1.2421438119        0.2227529880        1.8344502757
 H         -1.1940855752        0.3957879007        2.0994509342
 C         -3.0678861627        0.8279612997        0.1811406937
 H         -3.3101203989        1.4227270673        1.0676963817
 H         -3.5219270916        1.3162922318       -0.6868405004
 C         -3.6760555994       -0.5797146501        0.3520359211
 C         -3.4482692843       -1.4302741898       -0.9000250802
 H         -3.8727999379       -2.4250257210       -0.7613624381
 H         -2.3814324310       -1.5346060436       -1.0996891624
 H         -3.9206428504       -0.9693714081       -1.7690654586
 C         -5.1711868071       -0.4700956403        0.6617844578
 H         -5.6979228966        0.0211448925       -0.1578067165
 H         -5.3294497605        0.1084752342        1.5725568497
 H         -5.5999316518       -1.4627251045        0.8037533924
 H         -3.1783315558       -1.0682071811        1.2011603478
 H         -1.6033543197        1.1037173572       -2.1066816536
 H          0.8341186617        0.9363148445       -2.3721845777
 C          3.4130055595        1.6391420396        0.2864130719
 H          4.4839577885        1.6127912681        0.0860357435
 H          3.0125409861        2.5952623969       -0.0480743492
 H          3.2570849425        1.5450542543        1.3606748090
 H          2.9641929325        0.5164562857       -1.5154143995
 H          3.5121854131       -2.6281039027       -0.3848338668
