  48
        -65.15697497
 Cl         4.8348293169        1.5108976609        0.3689040367
 N         -2.0863546598        1.6524529446       -0.2800818611
 N         -1.3978622334       -1.1150476886        0.3912979289
 N          2.2730512066       -2.6342755491       -0.9377285218
 C         -3.8125312098       -0.8474535016        0.3687276899
 C         -3.8601369910        0.0207847282       -0.8976744539
 C         -2.6485753542       -1.8395329975        0.3880248907
 C         -3.4885135020        1.4857348676       -0.6475972858
 C         -2.7314475659       -2.7362985645        1.6286337578
 C         -1.8670125999        2.7324635265        0.6756669580
 C         -1.2057268883        1.7317136110       -1.4418961906
 C         -0.2108665638       -1.6375179011        0.0074764551
 C          0.9903903754       -0.8614663823        0.1317693504
 C         -2.2671462455        2.3316298179        2.0939502462
 C         -1.2685278565        3.0259850520       -2.2583151362
 C         -0.0649306643       -2.9258314022       -0.4994031069
 C          2.1964239512       -1.4072351475       -0.3878508915
 C          1.0459851196        0.3863010956        0.7772568740
 C          1.1795386924       -3.3531572875       -0.9536840151
 C          3.3845641993       -0.6490936088       -0.3183667969
 C          2.2122657364        1.0997365804        0.8561753665
 C          3.3784057863        0.5784129270        0.2810566552
 H         -4.7371889814       -1.4197398535        0.4560558477
 H         -3.7378842347       -0.2099130450        1.2505788989
 H         -4.8699318261        0.0094476518       -1.3116391482
 H         -3.1965162115       -0.3981397066       -1.6553249624
 H         -2.7150777197       -2.4699720465       -0.5106117538
 H         -3.7387555498        2.0687780364       -1.5452190461
 H         -4.1124127725        1.8650433287        0.1635739062
 H         -1.4884491644       -0.1031492645        0.4364402184
 H         -2.7305767386       -2.1263858319        2.5288862092
 H         -1.8760174505       -3.4052376042        1.6690434575
 H         -3.6402505704       -3.3320170762        1.6093158290
 H         -0.7996165430        2.9658741398        0.6680548448
 H         -2.4125134106        3.6463900000        0.3934933021
 H         -0.1795876854        1.5911610894       -1.0891812891
 H         -1.4473972208        0.8872676195       -2.0915820746
 H         -1.7557448382        1.4208685314        2.3970771099
 H         -1.9957106308        3.1257327942        2.7850367703
 H         -3.3387663513        2.1663891615        2.1758422380
 H         -2.2721640966        3.2145886001       -2.6328768769
 H         -0.9557312484        3.8791322931       -1.6615803787
 H         -0.5993477091        2.9409496719       -3.1101168456
 H         -0.9050193675       -3.5955501795       -0.5813195657
 H          0.1618753144        0.7802973664        1.2520814724
 H          1.2814506586       -4.3455658265       -1.3764407719
 H          4.2820384792       -1.0758406868       -0.7352313979
 H          2.2475169995        2.0522607550        1.3616096276
