48
      -1976.205099638051
 S     0.099301     1.277147    -0.621519
 C     0.009810    -0.330924    -0.279111
 N    -1.105772    -1.063051    -0.062669
 C    -2.413910    -0.526754    -0.185544
 C    -3.125154    -0.200862     0.956007
 C    -4.405864     0.294353     0.823339
 C    -5.023741     0.479952    -0.407658
 C    -4.270720     0.142807    -1.533388
 C    -2.986781    -0.349434    -1.436702
 H    -2.417097    -0.583302    -2.323197
 H    -4.743803     0.281495    -2.493917
 C    -6.416525     0.989774    -0.669385
 O    -6.883376     0.953367    -1.804032
 N    -7.112123     1.493529     0.372442
 H    -6.704098     1.501185     1.288215
 C    -8.451327     2.010175     0.188743
 H    -8.455526     2.839310    -0.516511
 H    -8.825640     2.354585     1.147657
 H    -9.115889     1.240905    -0.200403
 F    -5.054898     0.601028     1.981272
 H    -2.687932    -0.304585     1.936441
 C    -0.841141    -2.494965     0.134317
 C     0.678087    -2.525372     0.052422
 O     1.384029    -3.499984     0.168528
 N     1.095727    -1.221244    -0.176088
 C     2.454639    -0.846000    -0.286502
 C     3.280312    -1.518112    -1.171135
 C     4.611472    -1.163339    -1.262567
 C     5.128960    -0.131974    -0.479437
 C     4.283089     0.536423     0.421369
 C     2.955486     0.170853     0.514458
 H     2.303185     0.675831     1.205388
 C     4.818494     1.644435     1.292184
 F     5.294692     2.668676     0.550585
 F     3.868130     2.149349     2.109178
 F     5.829101     1.208390     2.078589
 C     6.501750     0.193538    -0.629792
 N     7.626793     0.422553    -0.789499
 H     5.264217    -1.677683    -1.950982
 H     2.886501    -2.314745    -1.782519
 C    -1.433519    -3.338921    -0.986118
 H    -1.112855    -4.370209    -0.867861
 H    -1.105495    -2.984673    -1.960910
 H    -2.519575    -3.303111    -0.952737
 C    -1.292442    -2.981262     1.503637
 H    -0.885859    -2.356350     2.295731
 H    -0.945199    -3.999461     1.656243
 H    -2.377594    -2.969925     1.569609
