  51
        -86.70964394
 F          6.6319006826        1.7328852438       -0.6977163993
 C          5.5304233443        0.9907630255       -0.4501739101
 C          5.3123864508       -0.1591109066       -1.1887734090
 C          4.1860058060       -0.9156021413       -0.9347833915
 C          3.2869924531       -0.5179660822        0.0551998242
 C          3.5244861007        0.6438047984        0.7872065233
 C          4.6510672844        1.4028133441        0.5342580549
 H          4.8510039758        2.3049111254        1.0901237729
 H          2.8254990142        0.9556458813        1.5472893116
 N          2.1588638999       -1.2812620945        0.3110468524
 C          1.6487415975       -2.4286889808       -0.2217977937
 O          2.0081804124       -3.1402476714       -1.1201152896
 C          0.4683551621       -2.4179668676        0.7479034434
 C         -0.9069314514       -2.3994073970        0.1007548206
 C         -2.0260299057       -2.4145922814        1.1411948292
 H         -1.9871245725       -3.3491672959        1.7041063418
 H         -1.8866996220       -1.5840002755        1.8347308914
 C         -3.4319319515       -2.2858514388        0.5125642938
 C         -3.5719108347       -0.9217500037       -0.1331534329
 C         -3.9249005046        0.1641848396        0.6605261575
 C         -4.0081125341        1.4371098622        0.1312503857
 C         -3.7187126784        1.6126322285       -1.2090301345
 C         -3.3840749641        0.5549449633       -2.0298613189
 C         -3.3178590554       -0.7145271930       -1.4827079090
 H         -3.0711391169       -1.5437987829       -2.1289421515
 H         -3.1774553715        0.7259502890       -3.0745551901
 F         -3.7392319861        2.8650445088       -1.7266677825
 H         -4.2795259935        2.2843682997        0.7401870924
 H         -4.1376506682        0.0106240243        1.7076927263
 H         -4.1722238042       -2.3639608525        1.3174318869
 O         -3.7351287320       -3.3578547611       -0.3412292760
 H         -3.0786787739       -3.3962458547       -1.0453447361
 H         -0.9710155293       -3.2842222283       -0.5383043148
 H         -1.0008466401       -1.5110978298       -0.5272386570
 H          0.5305873261       -3.2281346489        1.4766520596
 C          1.0805915090       -1.0867921952        1.2784443684
 C          0.2871756173        0.1721275291        1.0951787015
 C          0.1553468368        0.7652281246       -0.1544043126
 C         -0.5662203250        1.9328449994       -0.3091303116
 C         -1.1759534582        2.5296535038        0.7887236447
 C         -1.0527616987        1.9363165326        2.0428110702
 C         -0.3267411823        0.7735352388        2.1885489900
 H         -0.2295744579        0.3266202075        3.1677865941
 H         -1.5266845425        2.4084151470        2.8881730274
 O         -1.8897846988        3.6753668013        0.6926792986
 H         -1.9710741056        3.9489435954       -0.2303738465
 H         -0.6544534739        2.3879953904       -1.2860509379
 H          0.6366575010        0.3234034790       -1.0147539067
 H          1.4351309309       -1.1608991949        2.3128810559
 H          3.9916828678       -1.8160582678       -1.4945863855
 H          6.0192103491       -0.4506393291       -1.9490336432
