  41
        -68.83444238
 S         -0.4569795880       -0.6757387114       -0.9944531779
 O         -1.1165075890        2.2639596978        2.1566717770
 O         -4.8389608513       -0.7270614121        0.1464250401
 O         -3.8062547192        0.2641390159       -1.5662165500
 O          2.4569186911        3.0629577845       -1.0142198160
 N         -1.8695687456        1.1622070556        0.2240965120
 N          1.2964758884        1.5441342409        0.1898977665
 C         -0.9505015003        1.0813618399       -0.8844801617
 C         -1.6217941739       -1.2096111828        0.3589864136
 C         -2.6193274579       -0.0217805594        0.5240359301
 C         -0.0004029803        2.0458199239       -0.1195964357
 C         -1.0309062685        1.9093359896        1.0185222334
 C         -2.2954755552       -2.5047592827       -0.0655737357
 C         -0.8259185720       -1.4010739415        1.6447524485
 C         -3.7973451100       -0.1315540540       -0.4357828231
 C          2.4332849851        2.0502019660       -0.3570588849
 C          3.6757522105        1.2320549644       -0.0112884274
 C          3.3797758976       -0.2385273342        0.0378894984
 C          3.1919786135       -0.8912763588        1.2516345177
 C          3.2184180547       -0.9563778678       -1.1421680481
 C          2.8519918483       -2.2331123029        1.2843551175
 C          2.8755614246       -2.2952831357       -1.1099173665
 C          2.6890246395       -2.9365808567        0.1033711254
 H         -1.3455916601        1.4014966405       -1.8475490379
 H         -2.9949400513        0.0178819963        1.5495299561
 H          0.1101901286        3.0383773898       -0.5617095159
 H         -1.5585010458       -3.3034038362       -0.1021946872
 H         -3.0736254297       -2.7751050992        0.6459196025
 H         -2.7368377022       -2.4051894001       -1.0547226518
 H         -1.4574900664       -1.8431935435        2.4133788945
 H          0.0187286481       -2.0621342857        1.4615325038
 H         -0.4458013308       -0.4518083456        2.0184512611
 H          1.3455155257        0.6318615872        0.6239118146
 H         -5.5874893840       -0.7939407588       -0.4691513363
 H          4.0394607817        1.5866268432        0.9561067624
 H          4.4322792601        1.4599659489       -0.7634243380
 H          3.3159496808       -0.3467790177        2.1778520894
 H          3.3566070564       -0.4560885215       -2.0891801050
 H          2.7141617566       -2.7279319621        2.2351761881
 H          2.7486825339       -2.8393259043       -2.0334407786
 H          2.4198686464       -3.9822275309        0.1283214542
