  48
        -95.17721472
 S          0.4238383755       -1.6451431164       -0.8049443357
 C          0.2256724124       -0.0369800526       -0.5915035384
 N          1.2065752368        0.8851265888       -0.4784918529
 C          2.5697445794        0.5481148977       -0.3294250841
 C          2.9523364864       -0.3191201125        0.6861042466
 C          4.2850109528       -0.6546510659        0.8233808624
 C          5.2690173274       -0.1422591688       -0.0154721749
 C          4.8577410612        0.7387716249       -1.0128106556
 C          3.5302935212        1.0750766307       -1.1848738342
 H          3.2410320850        1.7306910736       -1.9891106841
 H          5.6190820673        1.1513901236       -1.6570064722
 C          6.7441092757       -0.4098793709        0.0874303426
 O          7.5477579203        0.4092015389       -0.3144485336
 N          7.0950298631       -1.6000711575        0.6104480323
 H          6.3977655397       -2.2487358966        0.9360854056
 C          8.4749805368       -1.9874930715        0.7689180997
 H          8.6791569619       -2.9067430727        0.2175040581
 H          8.7117373889       -2.1422315171        1.8230521564
 H          9.0917607457       -1.1822345901        0.3734724557
 F          4.6091405574       -1.4878943114        1.8352695374
 H          2.2280658538       -0.7420640288        1.3638333209
 C          0.6768775802        2.2183153989       -0.2214254970
 C         -0.8284270898        1.9669583730       -0.2492923908
 O         -1.7000509486        2.7804195563       -0.1141255821
 N         -0.9993720109        0.6195978767       -0.4910638271
 C         -2.2586585437        0.0012217241       -0.6085123127
 C         -2.5101095968       -0.9033128889       -1.6352839796
 C         -3.7498614150       -1.5018473552       -1.7351408377
 C         -4.7574192675       -1.1933631774       -0.8220921203
 C         -4.4989877080       -0.2701589356        0.1986766184
 C         -3.2547953565        0.3221018772        0.3089725722
 H         -3.0619000624        1.0337139198        1.0958393388
 C         -5.5915976811        0.0606039437        1.1819855911
 F         -6.6604362900        0.6100637574        0.5854029446
 F         -6.0308281568       -1.0286496925        1.8335051166
 F         -5.1934017225        0.9259670860        2.1231351689
 C         -6.0247504320       -1.8142247682       -0.9500813509
 N         -7.0379620336       -2.3301270091       -1.0816268206
 H         -3.9516442653       -2.2084273008       -2.5252619830
 H         -1.7387531945       -1.1399475494       -2.3496846537
 C          1.0301356230        3.2373014606       -1.3059195513
 H          0.8876805668        2.8089244434       -2.2957939537
 H          2.0575779367        3.5736583982       -1.1987253620
 H          0.3683112633        4.0941452876       -1.2021223208
 C          1.0945088739        2.7186721481        1.1630271552
 H          2.1661876182        2.9024028490        1.1877098728
 H          0.8463619773        1.9851012686        1.9276587803
 H          0.5670266706        3.6429440448        1.3826310666
