  33
         -5.69153567
 O          3.7155832471        1.4343536464        1.2115254593
 C          3.2715651458        0.7529909793        0.1298374013
 O          3.3428221398        1.1793720451       -1.0019912486
 C          2.6513734358       -0.6028110874        0.3853189027
 C          1.1611020030       -0.5795284571        0.1409362329
 C          0.3047652441       -1.3490519792        0.9126130479
 C         -1.0531555789       -1.3541133906        0.6664601634
 C         -1.5924395449       -0.5996078985       -0.3643170552
 C         -0.7348195121        0.1654316375       -1.1392552780
 C          0.6215681910        0.1697810817       -0.8904339657
 H          1.2835706615        0.7705486708       -1.4904818856
 H         -1.1383136934        0.7645753995       -1.9378257645
 C         -3.0733352073       -0.5754653959       -0.5984075395
 H         -3.2780102640       -0.2287331126       -1.6159098061
 H         -3.4603081663       -1.5989816171       -0.5548292404
 C         -3.8362325014        0.3159992024        0.4021202333
 C         -5.3464791786        0.2002548927        0.1952524346
 H         -5.6254945965        0.5474179160       -0.7996260230
 H         -5.8966587897        0.8022918890        0.9195280704
 H         -5.6860744766       -0.8318185365        0.2903948470
 C         -3.3807851446        1.7724557649        0.3105920990
 H         -2.3110033082        1.8704264212        0.4986970576
 H         -3.9055732953        2.4017000365        1.0305630679
 H         -3.5776590236        2.1749756997       -0.6828655137
 H         -3.5972944514       -0.0517800585        1.4151709414
 H         -1.7089821216       -1.9484743824        1.2802739295
 H          0.7103980246       -1.9462578364        1.7120716027
 C          3.3442817943       -1.6632540565       -0.4591444552
 H          3.2239865488       -1.4337985899       -1.5176107009
 H          4.4141963499       -1.6981675762       -0.2514855961
 H          2.9262074380       -2.6544840906       -0.2810972955
 H          2.8129453442       -0.8249124735        1.4503511904
 H          4.0817670186        2.2791287900        0.8839297308
