33
      -656.406725326972
 O     3.132160     1.231106     1.596429
 C     3.205302     0.719914     0.342800
 O     3.607371     1.363596    -0.599188
 C     2.695329    -0.703856     0.288985
 C     1.195202    -0.672587     0.084868
 C     0.343201    -1.260886     1.012063
 C    -1.027847    -1.258262     0.817571
 C    -1.594342    -0.661458    -0.304949
 C    -0.736038    -0.070357    -1.226848
 C     0.635955    -0.073373    -1.038673
 H     1.277061     0.404589    -1.767074
 H    -1.150422     0.405335    -2.106922
 C    -3.081908    -0.624311    -0.481569
 H    -3.323810    -0.397655    -1.522171
 H    -3.497221    -1.613318    -0.276293
 C    -3.789844     0.397436     0.420259
 C    -5.299172     0.281204     0.267062
 H    -5.605038     0.512260    -0.754662
 H    -5.817900     0.973991     0.929052
 H    -5.649178    -0.725239     0.496982
 C    -3.316288     1.815785     0.144498
 H    -2.243186     1.917072     0.292346
 H    -3.814128     2.528818     0.800958
 H    -3.538009     2.104650    -0.884634
 H    -3.533180     0.151776     1.455511
 H    -1.669871    -1.730902     1.551039
 H     0.758079    -1.731286     1.894778
 C     3.412894    -1.504053    -0.790183
 H     3.276315    -1.049794    -1.767098
 H     4.482606    -1.555139    -0.593564
 H     3.016487    -2.516449    -0.821938
 H     2.885986    -1.151570     1.263346
 H     3.426946     2.153425     1.527572
