44
      -825.772547022893
 O     1.646651     0.507723     1.474948
 C     1.723881     0.679468     0.260014
 N     1.086691     1.685428    -0.386209
 H     1.183884     1.742118    -1.386021
 C     0.235929     2.661715     0.271191
 C     0.910959     4.023342     0.324763
 H     1.083663     4.417432    -0.677638
 H     0.293671     4.741207     0.863343
 H     1.870288     3.951123     0.831998
 H     0.110313     2.286991     1.284727
 C    -1.131589     2.728288    -0.414090
 C    -1.879837     1.429526    -0.402875
 C    -2.024329     0.669075    -1.557914
 C    -2.707791    -0.537816    -1.539042
 C    -3.265897    -1.000713    -0.358072
 C    -3.128889    -0.252066     0.803046
 C    -2.437252     0.947768     0.778924
 H    -2.335127     1.522778     1.690850
 H    -3.561048    -0.603904     1.730337
 H    -3.805213    -1.938392    -0.340866
 H    -2.806197    -1.114941    -2.448708
 H    -1.598928     1.027083    -2.487728
 H    -1.717461     3.498336     0.090116
 H    -0.998588     3.073917    -1.442169
 C     2.596631    -0.224572    -0.612432
 N     4.010346    -0.090975    -0.263306
 H     4.103855    -0.296203     0.726003
 H     4.297621     0.875671    -0.370755
 C     2.152200    -1.666546    -0.436075
 H     2.297940    -1.918389     0.614411
 H     2.823813    -2.305809    -1.009669
 C     0.704920    -1.899819    -0.836520
 H     0.074709    -1.116876    -0.413877
 C     0.143143    -3.244394    -0.401870
 H     0.707130    -4.060007    -0.865470
 H    -0.879253    -3.326167    -0.781187
 C     0.120711    -3.459700     1.115412
 N    -0.479954    -2.401148     1.917270
 H     0.112517    -1.579513     1.914972
 H    -1.356317    -2.109257     1.502821
 H     1.134030    -3.616253     1.486374
 H    -0.410293    -4.392497     1.320331
 H     0.605952    -1.798650    -1.920469
 H     2.489335     0.056624    -1.664731
