51
      -1406.690692526404
 F     5.953240    -1.415430     1.656280
 C     4.875485    -0.847453     1.067805
 C     4.335956     0.301647     1.614710
 C     3.232867     0.884233     1.017116
 C     2.679420     0.311322    -0.129195
 C     3.238339    -0.847636    -0.663544
 C     4.341316    -1.430657    -0.064106
 H     4.782457    -2.330346    -0.466746
 H     2.802256    -1.304981    -1.538705
 N     1.569471     0.887184    -0.746223
 C     0.811588     1.993562    -0.498971
 O     0.888513     2.835586     0.381227
 C    -0.048113     1.772032    -1.736559
 C    -1.549923     1.595210    -1.663726
 C    -2.400959     2.788445    -1.235438
 H    -2.065435     3.711624    -1.709854
 H    -3.405830     2.603976    -1.618447
 C    -2.540142     3.079849     0.279738
 C    -2.631042     1.792957     1.079014
 C    -1.660596     1.433665     2.004314
 C    -1.711206     0.211960     2.663239
 C    -2.754182    -0.646768     2.389288
 C    -3.754843    -0.314025     1.496816
 C    -3.683386     0.908254     0.850650
 H    -4.462176     1.170041     0.145350
 H    -4.568769    -1.001482     1.316990
 F    -2.801336    -1.855031     3.009790
 H    -0.954413    -0.070235     3.381233
 H    -0.853444     2.117040     2.217339
 H    -3.492937     3.602000     0.397778
 O    -1.586232     3.992407     0.769014
 H    -0.685808     3.654969     0.597123
 H    -1.785053     0.746476    -1.028954
 H    -1.864241     1.296741    -2.666277
 H     0.205684     2.526477    -2.484097
 C     0.816581     0.473124    -1.937392
 C     0.128793    -0.847044    -1.824166
 C    -0.126190    -1.602911    -2.963401
 C    -0.820798    -2.796681    -2.893304
 C    -1.274498    -3.257797    -1.662358
 C    -1.021347    -2.515424    -0.513034
 C    -0.325562    -1.324843    -0.599586
 H    -0.144962    -0.758993     0.303085
 H    -1.370250    -2.864536     0.451180
 O    -1.953708    -4.439358    -1.642751
 H    -2.202246    -4.645004    -0.733917
 H    -1.015782    -3.383217    -3.779566
 H     0.225212    -1.254555    -3.927030
 H     1.428744     0.513138    -2.839582
 H     2.801345     1.783419     1.426437
 H     4.778389     0.734088     2.500014
