  50
        -70.68493519
 O         -1.4325235564       -1.3987396303       -0.8616815631
 C         -1.4625871547       -2.0433271557        0.4131854991
 C         -1.4921200300       -3.5584014617        0.1728436521
 C         -0.1950584324       -4.0895052237       -0.4242266266
 H          0.6500912220       -3.8710223938        0.2257471054
 H         -0.2568472178       -5.1674799252       -0.5549278372
 H         -0.0173585554       -3.6380696466       -1.3971653154
 H         -2.3134917805       -3.7783732888       -0.5089122261
 H         -1.6882490331       -4.0540895492        1.1249161928
 C         -2.6802563999       -1.5886124863        1.2386746303
 C         -4.0027606801       -1.8186773049        0.5154669452
 H         -3.9306545831       -1.4489223468       -0.5046119203
 H         -4.8041959992       -1.2905851731        1.0267682944
 H         -4.2549841132       -2.8752069868        0.4826586122
 H         -2.5869563525       -0.5273081251        1.4692128231
 H         -2.6720797376       -2.1289494993        2.1869837765
 H         -0.5473120301       -1.7882413822        0.9669326327
 C         -0.5366265089       -0.3267823529       -1.0320065891
 C          0.8845327159       -0.6608830963       -0.6890263957
 C          1.7578425300        0.2211550489       -0.2022905117
 C          3.1318267794       -0.2563271217        0.1003468716
 O          3.5078151091       -1.3917326334       -0.0685958892
 O          3.8998950007        0.7159914455        0.6035928957
 C          5.2481660654        0.3754261542        0.9250931885
 C          6.1453646261        0.4399987230       -0.3026955053
 H          6.0922644914        1.4268525517       -0.7562646101
 H          5.8288786859       -0.3024821544       -1.0310988696
 H          7.1724117867        0.2354266296       -0.0146277410
 H          5.5533438261        1.1073209121        1.6757762827
 H          5.2671749724       -0.6321071515        1.3535564394
 C          1.4221646449        1.6541398742        0.0720856268
 H          1.3526079175        1.8045935900        1.1535510344
 H          2.2232752422        2.3028177293       -0.2829748608
 C          0.0989158732        2.0685031972       -0.5766347886
 N         -0.2820391201        3.3750044306       -0.0832788571
 H         -0.5009432651        3.3223354329        0.9070462253
 H         -1.1168190187        3.7056588961       -0.5545011117
 H          0.2387631162        2.1576365206       -1.6616117201
 C         -0.9514092148        0.9621479077       -0.3027825871
 N         -2.2779168599        1.3640873292       -0.7131290099
 C         -3.1998788884        1.8265452040        0.1643535873
 O         -2.9423679636        2.0308473293        1.3327502536
 C         -4.5584357044        2.0746210225       -0.4536695068
 H         -4.9915223114        1.1295952509       -0.7746973216
 H         -5.2100408922        2.5316809259        0.2850740486
 H         -4.4713329199        2.7317179578       -1.3161744411
 H         -2.5530563276        1.1464105173       -1.6576534944
 H         -0.9911813912        0.7937562474        0.7794397441
 H          1.2002552646       -1.6789668961       -0.8645431415
 H         -0.5879043490       -0.1336894340       -2.1169676301
