  26
        -26.32263438
 C         -4.4399658300       -0.2694803313        0.0000932788
 H         -4.4912356845       -0.9042333055       -0.8820051190
 H         -4.4909042218       -0.9054461417        0.8813419074
 C         -3.1496854896        0.5410659257        0.0003916662
 H         -3.1264859330        1.1866247024       -0.8806913562
 H         -3.1262800876        1.1855758307        0.8822364488
 H         -5.3064365392        0.3878882026        0.0007120347
 C         -1.9143006621       -0.3560551147       -0.0002426375
 H         -1.9380334824       -1.0018280122        0.8809366795
 H         -1.9384534293       -1.0011812029       -0.8818836065
 C         -0.6173380711        0.4492448145       -0.0002605947
 H         -0.5935296558        1.0948297284       -0.8816313683
 H         -0.5936331588        1.0950325326        0.8809625561
 C          0.6171786826       -0.4490919593       -0.0001017907
 H          0.5934556584       -1.0949907754       -0.8812224527
 H          0.5934643734       -1.0945902970        0.8813229228
 C          1.9142618819        0.3559805751       -0.0003801891
 H          1.9380722098        1.0018115243        0.8807439470
 H          1.9383409949        1.0010318190       -0.8820708924
 C          3.1497323106       -0.5410241823        0.0002331664
 H          3.1261556736       -1.1857511088        0.8819205017
 H          3.1266061427       -1.1863783767       -0.8809934062
 C          4.4401090686        0.2693758197        0.0002368703
 H          5.3065616544       -0.3880331129        0.0006594540
 H          4.4909936230        0.9050622926        0.8816891571
 H          4.4914384914        0.9043904368       -0.8816671807
