  51
         -9.95803498
 F          5.9681766228       -1.3311946744        1.7905319566
 C          4.9661785558       -0.7565383656        1.0796617366
 C          4.3979380788        0.4291703818        1.5157611608
 C          3.3769855604        1.0060953286        0.7990986142
 C          2.9091274873        0.4087954350       -0.3644867779
 C          3.4844330527       -0.7799021751       -0.7992363456
 C          4.5053753524       -1.3571379859       -0.0808308403
 H          4.9608593179       -2.2785948657       -0.4026310661
 H          3.1172095766       -1.2415359140       -1.6988762012
 N          1.8423670278        1.0176736590       -1.0702892237
 C          1.0216576468        2.1081484284       -0.7821985582
 O          1.0435568312        2.9199648181        0.1154357383
 C          0.0999459918        1.8196581116       -1.9450481752
 C         -1.3797002459        1.5937430107       -1.6036523961
 C         -2.1758231100        2.8239958252       -1.1128067727
 H         -1.6349061556        3.7432764406       -1.3595044353
 H         -3.1188931762        2.8888029603       -1.6693987680
 C         -2.4947183014        2.8167685709        0.4065130879
 C         -2.7513016573        1.4268167069        0.9509926836
 C         -1.9513392730        0.9057209319        1.9525433420
 C         -2.1221040791       -0.3916175444        2.3859748080
 C         -3.0858564890       -1.1970113761        1.8042298163
 C         -3.9184596912       -0.6712766535        0.8330404879
 C         -3.7500491298        0.6296841666        0.4118220266
 H         -4.3830753689        1.0291907934       -0.3610120085
 H         -4.6730570978       -1.3055658785        0.3977329173
 F         -3.1199885547       -2.5269670013        2.0791324226
 H         -1.4945435098       -0.8054773017        3.1568997263
 H         -1.1846415842        1.5277632492        2.3814684597
 H         -3.4096943941        3.4053260039        0.5856645787
 O         -1.5046439121        3.5181968821        1.1559362221
 H         -0.6020849518        3.3094891759        0.8163880853
 H         -1.4371209256        0.8076831432       -0.8463292349
 H         -1.8651513693        1.1594287868       -2.4861624637
 H          0.2417111656        2.5540628098       -2.7515950819
 C          0.9466029590        0.5183623074       -2.1450955812
 C          0.2223811121       -0.7534788899       -1.7806461236
 C         -0.5052454404       -1.4656755951       -2.7250715442
 C         -1.3608062907       -2.4737479354       -2.3413586424
 C         -1.5342092861       -2.7816212628       -0.9917950682
 C         -0.7462125914       -2.1152465494       -0.0538329827
 C          0.1094124612       -1.1168759726       -0.4467139894
 H          0.6626754724       -0.5642517432        0.2919555442
 H         -0.8478208548       -2.3705092357        0.9865066613
 O         -2.4991425235       -3.6862983210       -0.5837048621
 H         -2.7207243814       -3.5028357141        0.3544176886
 H         -1.9537599197       -3.0047883582       -3.0658291126
 H         -0.4296471513       -1.1895905227       -3.7626450911
 H          1.4715741295        0.4582809658       -3.1112874658
 H          2.9175060028        1.9255822745        1.1204604857
 H          4.7692932706        0.8830777823        2.4184685138
