  26
        -26.65836408
 C          4.4394399277        0.2693361226        0.0004082561
 H          5.3028703132       -0.3968186050       -0.0001196627
 H          4.4919384048        0.9055809521       -0.8843299071
 C          3.1460185144       -0.5439033144       -0.0002914381
 H          3.1228188276       -1.1898243062       -0.8846259613
 H          3.1224280503       -1.1906291895        0.8834392676
 H          4.4918519929        0.9041622413        0.8861427422
 C          1.9120395336        0.3638453377       -0.0001615944
 H          1.9350009116        1.0106941216        0.8837044133
 H          1.9347706713        1.0105691464       -0.8841163900
 C          0.6168350986       -0.4540540310        0.0001190580
 H          0.5938040363       -1.1012261978       -0.8834958986
 H          0.5936572294       -1.1003513693        0.8843723831
 C         -0.6168810635        0.4538953851       -0.0004335777
 H         -0.5937381257        1.1000737298       -0.8847700129
 H         -0.5937036875        1.1011615022        0.8831063041
 C         -1.9120865932       -0.3640051505        0.0000708053
 H         -1.9348023952       -1.0105646649        0.8841513385
 H         -1.9352171527       -1.0110108378       -0.8836773129
 C         -3.1459190792        0.5439637173        0.0001714335
 H         -3.1224330933        1.1901833426        0.8842746860
 H         -3.1224547768        1.1903753399       -0.8837914358
 C         -4.4394567810       -0.2690986050        0.0000824133
 H         -4.4918449884       -0.9049190418        0.8851110423
 H         -4.4920259083       -0.9043687986       -0.8853357433
 H         -5.3027958750        0.3971573703        0.0003729704
