  40
        -81.50699184
 S          4.8021468790        1.0090848607        0.0106102824
 O          5.3786984360       -0.2678317368        0.3503837367
 O          5.1952793486        1.6890885146       -1.1978089965
 N          5.0861187992        2.0551229885        1.3017196233
 H          5.6836378486        1.5661481936        1.9537900196
 H          5.5360025237        2.8776712281        0.9243257530
 C          3.0451666268        0.8388549393        0.0045893226
 C          2.2807585490        1.7471547066       -0.7124787227
 C          0.9045597988        1.6040190941       -0.7246797277
 C          0.3138334477        0.5516056978       -0.0254859475
 C          1.0903379470       -0.3429256010        0.7096072490
 C          2.4679013361       -0.1995982128        0.7186925020
 H          3.0915730461       -0.8894754587        1.2734886831
 H          0.6224951400       -1.1388083818        1.2745103518
 N         -1.0873058301        0.4462643013       -0.0465057279
 C         -1.9036698086       -0.6414512308        0.0568902362
 C         -3.1944413847       -0.1503390353        0.1042153192
 C         -3.0579943899        1.2408237262        0.0134763320
 N         -1.7828953802        1.5910402700       -0.0780027017
 C         -4.1362350836        2.2748491971        0.0183572148
 F         -5.3448229358        1.6980011928       -0.0058293748
 F         -4.0595536096        3.0895416502       -1.0407886894
 F         -4.0875311644        3.0471705347        1.1132223959
 H         -4.1090227393       -0.7134549744        0.1663427464
 C         -1.4562343890       -2.0319862212       -0.0000717222
 C         -2.0727249440       -2.9924660126        0.8041796111
 C         -1.6888676560       -4.3216668690        0.7303919274
 C         -0.6914931442       -4.7263146804       -0.1527819082
 C         -0.0884211267       -3.7698733128       -0.9683572708
 C         -0.4653286128       -2.4400966002       -0.8983211420
 H         -0.0000110230       -1.7124945835       -1.5535454135
 H          0.6808558700       -4.0696967499       -1.6717842471
 C         -0.2592251768       -6.1639749966       -0.2228002020
 H          0.6798231430       -6.2958354370        0.3192488744
 H         -1.0069353140       -6.8191447930        0.2235940582
 H         -0.0952721724       -6.4670445572       -1.2573879270
 H         -2.1741011229       -5.0527218254        1.3680736652
 H         -2.8471177203       -2.6907063927        1.5006353916
 H          0.2749584459        2.2962313267       -1.2700303066
 H          2.7613139415        2.5466700694       -1.2624251661
