40
      -1225.053798056037
 S     1.324144    -0.785682     1.675085
 C     2.489397    -1.973223     2.145805
 C     3.203421    -2.426308     1.079795
 C     2.818057    -1.812316    -0.136439
 C     1.824470    -0.891747     0.015573
 C     1.229456    -0.001066    -1.028734
 C     2.129858     1.157789    -1.439762
 H     3.001500     0.736907    -1.940892
 H     1.585964     1.726766    -2.196367
 C     2.570460     2.108992    -0.322141
 N     3.623744     1.677710     0.579825
 H     3.293762     0.931332     1.173587
 C     4.873238     1.304637    -0.046132
 H     4.825419     0.429649    -0.711207
 H     5.609086     1.084095     0.725412
 H     5.253092     2.143228    -0.631420
 H     2.905248     3.035705    -0.794888
 H     1.703945     2.375539     0.282448
 O    -0.001869     0.572445    -0.584018
 C    -1.129162    -0.196745    -0.566706
 C    -1.162773    -1.539237    -0.855424
 C    -2.382585    -2.235078    -0.815494
 C    -3.548299    -1.602521    -0.488303
 C    -3.544002    -0.226208    -0.177991
 C    -4.722860     0.463897     0.171408
 C    -4.698736     1.799596     0.471592
 C    -3.487539     2.508845     0.434259
 C    -2.321773     1.871941     0.097495
 C    -2.317963     0.498605    -0.214266
 H    -1.390946     2.417145     0.067984
 H    -3.475963     3.563961     0.672985
 H    -5.613494     2.312162     0.738452
 H    -5.655115    -0.085898     0.199026
 H    -4.482876    -2.146836    -0.457266
 H    -2.383672    -3.292434    -1.044147
 H    -0.257900    -2.081466    -1.078252
 H     1.033838    -0.600027    -1.923510
 H     3.269626    -2.036582    -1.092266
 H     3.973689    -3.179024     1.157294
 H     2.557051    -2.278087     3.175576
