  28
         -4.26709968
 O          0.3309974741       -2.2135958712       -0.0284978068
 C          1.2407252552       -1.2647791481        0.2965182093
 O          2.3526452547       -1.2283907647       -0.1859722664
 C          0.7979908428       -0.2168511720        1.2783707393
 H          1.6471718383        0.0441750746        1.9152257494
 C          0.2107750818        1.0592788689        0.6338714263
 C         -0.7956657700        0.7400340453       -0.4799659586
 H         -1.1667522072        1.6724509206       -0.9169802048
 C         -1.9959553434       -0.1242056584       -0.0530346854
 C         -2.8620215892        0.5778202901        0.9923987612
 H         -3.7237087013       -0.0317828845        1.2675361005
 H         -3.2403650284        1.5236671924        0.6053303594
 H         -2.3069317105        0.7925541207        1.9056445707
 C         -2.8304514482       -0.5228590922       -1.2712180055
 H         -3.6669283460       -1.1641382711       -0.9907275470
 H         -2.2304102336       -1.0590566941       -2.0074167310
 H         -3.2418668127        0.3596125010       -1.7611471166
 H         -1.5954104705       -1.0489981110        0.3962127842
 H         -0.2587045850        0.2356074481       -1.2898550238
 H         -0.3280687663        1.6064302639        1.4251769015
 C          1.3090640366        2.0020999615        0.1079530908
 N          1.9727516974        1.4887091522       -1.0743031649
 H          2.8175592067        2.0006511567       -1.2966034901
 H          2.2311175875        0.5233119965       -0.8870378497
 H          0.8728298588        2.9754645045       -0.1457106069
 H          2.0423308234        2.1927264140        0.9021556495
 H          0.0582806574       -0.6769406043        1.9402026208
 H          0.7706529520       -2.8151452971       -0.6612288217
