  48
         -9.48655235
 S          0.1373159742        1.3775331360       -0.1002232260
 C          0.0692763604       -0.2641273284       -0.0334081840
 N         -1.1177560554       -0.9546482531        0.0494223121
 C         -2.4419290675       -0.4086880607       -0.0740007764
 C         -3.3785870639       -0.5573677483        0.9411093444
 C         -4.6551116789       -0.0577164640        0.8167001326
 C         -5.0273767829        0.6283735731       -0.3472262242
 C         -4.0826558439        0.7865366358       -1.3539257229
 C         -2.8130407312        0.2809547721       -1.2248857177
 H         -2.0852466249        0.4085926951       -2.0082458761
 H         -4.3769028657        1.3197844032       -2.2430418234
 C         -6.3749272621        1.1892443196       -0.5523345548
 O         -6.6544208000        1.7047510277       -1.6230075037
 N         -7.3093022539        1.1369670772        0.4565416713
 H         -7.0824621163        0.7533341492        1.3746482986
 C         -8.6096446526        1.7314532955        0.2837829849
 H         -8.7076922264        2.6208382607        0.9046406834
 H         -9.3961192792        1.0214420207        0.5376571404
 H         -8.7247036691        2.0228124271       -0.7605461168
 F         -5.5275120816       -0.2595307928        1.8248120122
 H         -3.1036565634       -1.0401440135        1.8608515260
 C         -0.8691257856       -2.4285807181        0.0475334266
 C          0.6464412507       -2.4917942018       -0.0584224239
 O          1.2655632255       -3.5233934056       -0.1241037407
 N          1.1324045525       -1.1687690282       -0.0650546210
 C          2.5368893329       -0.9035843194       -0.1163616954
 C          3.4400366008       -1.9233693179       -0.3817276427
 C          4.7893381797       -1.6783819900       -0.4305566364
 C          5.2897924356       -0.4016431660       -0.2090712916
 C          4.3910159028        0.6300194003        0.0695398683
 C          3.0412949548        0.3682528651        0.1116956264
 H          2.3646141467        1.1742457955        0.3318005680
 C          4.8715573517        2.0459045359        0.3276805796
 F          5.5180783270        2.4951937172       -0.7650546979
 F          3.7991626408        2.8231553300        0.5783669801
 F          5.6943506032        2.0426857126        1.3940224758
 C          6.6777922916       -0.2037556400       -0.2709112889
 N          7.8322437800       -0.0924973920       -0.3335553769
 H          5.4808063259       -2.4781540231       -0.6373159298
 H          3.0608311089       -2.9192089907       -0.5335402647
 C         -1.5003557700       -3.0888813249       -1.1717623559
 H         -1.2093796697       -4.1367332814       -1.2314077814
 H         -1.1670578925       -2.5943478306       -2.0827007861
 H         -2.5866433350       -3.0298019927       -1.1288719763
 C         -1.3112830395       -3.0861076334        1.3490090587
 H         -0.9106236499       -2.5418043663        2.2027240948
 H         -0.9403225916       -4.1091854061        1.3994174999
 H         -2.3961434515       -3.1127044824        1.4302931433
