26
      -315.550953393579
 C    -4.460773    -0.265276     0.000062
 H    -4.529736    -0.907317     0.878907
 H    -5.333299     0.387406     0.000008
 C    -3.166033     0.529198    -0.000010
 H    -3.140750     1.187830    -0.872341
 H    -3.140737     1.187966     0.872218
 H    -4.529741    -0.907471    -0.878670
 C    -1.922814    -0.346528     0.000048
 H    -1.947307    -1.006221     0.872705
 H    -1.947303    -1.006330    -0.872526
 C    -0.620994     0.438357     0.000003
 H    -0.597176     1.097755    -0.872697
 H    -0.597156     1.097826     0.872649
 C     0.621013    -0.438362     0.000021
 H     0.597172    -1.097799    -0.872650
 H     0.597154    -1.097790     0.872698
 C     1.922834     0.346516     0.000027
 H     1.947318     1.006253     0.872651
 H     1.947309     1.006279    -0.872579
 C     3.166054    -0.529215     0.000006
 H     3.140716    -1.187966     0.872247
 H     3.140735    -1.187894    -0.872291
 C     4.460799     0.265235     0.000051
 H     4.529754     0.907316     0.878870
 H     4.529754     0.907410    -0.878697
 H     5.333326    -0.387441     0.000016
