  40
        -59.87958551
 S          1.8064627639       -0.6495135739        1.3642420964
 C          3.0508596150       -1.7930061444        1.6719977664
 C          3.7031066252       -2.1678187245        0.5400786120
 C          3.1924993018       -1.5209962949       -0.6151260181
 C          2.1630010836       -0.6752529452       -0.3244967967
 C          1.4125944249        0.2036987569       -1.2886670234
 C          2.1501169464        1.5293283082       -1.5588148684
 H          3.0293217967        1.2990844841       -2.1673469611
 H          1.4867210840        2.1637250118       -2.1509796143
 C          2.6221243916        2.2747760150       -0.2967322949
 N          1.5526129682        2.7101719076        0.5920314005
 H          0.9435937781        1.9116797178        0.7708864050
 C          0.7358071781        3.7869792824        0.0326696292
 H          0.0107092090        4.0879595368        0.7899940355
 H          0.1983474184        3.4781132782       -0.8720541180
 H          1.3729987830        4.6408161971       -0.2035173788
 H          3.2833109867        1.6211706471        0.2824098080
 H          3.1999732472        3.1522933589       -0.6043598177
 O          0.1118305333        0.5253044447       -0.8037802384
 C         -0.8442678075       -0.4380177275       -0.6900659210
 C         -0.6585898156       -1.7579830547       -1.0328785449
 C         -1.7104186728       -2.6798041189       -0.8827877957
 C         -2.9282943498       -2.2909974636       -0.3946189537
 C         -3.1509865177       -0.9417181491       -0.0295763054
 C         -4.3945493124       -0.5020249181        0.4826648883
 C         -4.5868594445        0.8088227412        0.8317977195
 C         -3.5452523773        1.7423443935        0.6844591159
 C         -2.3295409253        1.3481192434        0.1901882639
 C         -2.1009844361        0.0030971372       -0.1772510164
 H         -1.5269195459        2.0659722653        0.0748058358
 H         -3.7117134409        2.7764472887        0.9649137047
 H         -5.5436261477        1.1356411439        1.2242730639
 H         -5.1961308603       -1.2245887884        0.5950834674
 H         -3.7333579772       -3.0080020000       -0.2795935354
 H         -1.5364973475       -3.7137246735       -1.1605248832
 H          0.2914793323       -2.1121570160       -1.4108787351
 H          1.3183816543       -0.3242314246       -2.2539411289
 H          3.5760666081       -1.6864868042       -1.6121738722
 H          4.5166823043       -2.8789467253        0.5135951388
 H          3.2323373427       -2.1343119080        2.6777494610
