  33
        -45.17191741
 O          3.8463286413        0.7472762463        1.2152241382
 C          3.4457717346        0.3919975393       -0.0131485519
 O          3.7239393770        1.0305114876       -0.9917759546
 C          2.5897108397       -0.8553346345        0.0222088883
 C          1.1530639017       -0.3975437949        0.1658030137
 C          0.5885697547        0.4620018700       -0.7690465244
 C         -0.7263511983        0.8663917148       -0.6440172741
 C         -1.5131669377        0.4255899717        0.4141186641
 C         -0.9418246116       -0.4270166946        1.3487814503
 C          0.3760444841       -0.8313500294        1.2297267670
 H          0.8016368835       -1.4930361225        1.9707152255
 H         -1.5324814028       -0.7781122941        2.1829340074
 C         -2.9503440125        0.8445707328        0.5160607046
 H         -3.3196611008        0.6665118927        1.5280628839
 H         -3.0304660461        1.9143236737        0.3078705176
 C         -3.8397648772        0.0822436349       -0.4816413651
 C         -5.2591971975        0.6428409487       -0.4534206902
 H         -5.2628909490        1.7005290657       -0.7079003510
 H         -5.6930929720        0.5270534795        0.5378205976
 H         -5.8903398456        0.1172488345       -1.1665038965
 C         -3.8501917969       -1.4107445413       -0.1671985040
 H         -2.8421977342       -1.8173929479       -0.2041852156
 H         -4.4640993845       -1.9465051398       -0.8877923332
 H         -4.2575691994       -1.5861981463        0.8265800304
 H         -3.4259761132        0.2225458159       -1.4864021079
 H         -1.1488844517        1.5399291381       -1.3760041653
 H          1.1878993244        0.8257549705       -1.5902267236
 C          2.7862768934       -1.6885898531       -1.2443160016
 H          3.7958880430       -2.0914645195       -1.2792371752
 H          2.0764506250       -2.5118926101       -1.2607693493
 H          2.6325682599       -1.0710440571       -2.1247413417
 H          2.8688036039       -1.4318039904        0.9081048643
 H          4.3527125119        1.5744474177        1.1814915652
