  44
        -57.70690537
 O          2.1167122603        2.5019111325        0.6334906149
 C          1.7370103772        1.4594710938        0.1319176576
 N          0.5315448056        1.2855378143       -0.4368569091
 H          0.2776723608        0.3596638878       -0.7861445741
 C         -0.4623914212        2.3307692657       -0.5237414292
 C         -1.0619349325        2.3367766731       -1.9260748411
 H         -1.5497461527        1.3868919001       -2.1322082354
 H         -1.7899747996        3.1375863431       -2.0252223028
 H         -0.2775810842        2.4902081071       -2.6634777339
 H          0.0651351568        3.2748048442       -0.3432553740
 C         -1.5411443665        2.1803803399        0.5762993308
 C         -2.1421599097        0.8071502760        0.6087672483
 C         -1.6193263814       -0.1615671010        1.4577679312
 C         -2.1328565207       -1.4460505429        1.4712956204
 C         -3.1807064612       -1.7834330333        0.6309657097
 C         -3.7220155124       -0.8219881558       -0.2062708480
 C         -3.2094806271        0.4641481615       -0.2132684861
 H         -3.6531523432        1.2116988443       -0.8550410471
 H         -4.5513088952       -1.0737291804       -0.8521347488
 H         -3.5819915615       -2.7863947018        0.6366787182
 H         -1.7193815834       -2.1845100875        2.1431911398
 H         -0.8097981149        0.1013356881        2.1231259301
 H         -1.0675320330        2.3906125133        1.5365653714
 H         -2.3139620707        2.9304114495        0.4005195748
 C          2.6312435230        0.2104352390        0.0512837780
 N          3.9920956351        0.4700567531        0.4894642315
 H          4.4089240173        1.1822089790       -0.1025756934
 H          3.9640969154        0.8644013611        1.4263620906
 C          2.0281846950       -0.9355620703        0.8748971308
 H          0.9419619612       -0.8733983709        0.8575231086
 H          2.3597039073       -0.8152492061        1.9084001708
 C          2.4569166586       -2.3132801354        0.3761007876
 H          3.5441744641       -2.3319668695        0.2890671220
 C          1.8441926572       -2.7107285463       -0.9690907412
 H          2.1754785634       -3.7247912246       -1.2014917487
 H          2.2209670414       -2.0588693084       -1.7587104028
 C          0.3113948957       -2.6738696459       -0.9948322441
 N         -0.1846348878       -1.3738179244       -1.4484801410
 H         -1.1957176298       -1.3443081120       -1.3560653896
 H          0.0389043245       -1.2518641956       -2.4323558941
 H         -0.0833366473       -2.8437390533        0.0093965101
 H         -0.0587293671       -3.4883446404       -1.6372101864
 H          2.1657904731       -3.0578066488        1.1210128527
 H          2.6741988824       -0.0821823230       -1.0033136891
