  50
         -8.08408410
 O          1.2479211896       -1.5240590529        0.9026241403
 C          1.3552701816       -1.9967110059       -0.4519640528
 C          1.1075158978       -3.5072084308       -0.4994781150
 C         -0.2626208579       -3.8836030153        0.0273293915
 H         -0.3775795745       -3.5708121177        1.0660227964
 H         -1.0547503277       -3.4013902009       -0.5476758085
 H         -0.4366837029       -4.9607907947       -0.0122032361
 H          1.8820728196       -4.0053949127        0.0924384211
 H          1.2376980025       -3.8690429045       -1.5263597776
 C          2.7162089441       -1.6172705423       -1.0532369421
 C          3.8714594423       -2.0386355225       -0.1674431275
 H          3.7551494003       -1.6241586508        0.8351727181
 H          4.8331603251       -1.6994646549       -0.5578763551
 H          3.9251434135       -3.1227497718       -0.0631920244
 H          2.7637572182       -0.5350427390       -1.2121724572
 H          2.8137410224       -2.0606617222       -2.0511335379
 H          0.5498424383       -1.5112502429       -1.0250749189
 C          0.4595667397       -0.3338090849        1.0686687753
 C         -0.9858928909       -0.5498259033        0.7550707457
 C         -1.7748591808        0.3689303570        0.2064983933
 C         -3.1830924346        0.0082348079       -0.0778642796
 O         -3.5629499902       -1.1304240557        0.1217464807
 O         -3.9776475005        1.0114597070       -0.5594602334
 C         -5.2873323619        0.5363323614       -0.7905847138
 C         -6.0506164209        0.2852091635        0.4914771473
 H         -5.5345650104       -0.4622537197        1.0953565347
 H         -7.0647867295       -0.0718075101        0.3055382919
 H         -6.1138492273        1.1955932239        1.0875067033
 H         -5.7916293107        1.2825917392       -1.4172952197
 H         -5.1965850983       -0.3785712020       -1.3909353196
 C         -1.2942141200        1.7371410808       -0.1703272314
 H         -1.2756857429        1.8066332528       -1.2622746998
 H         -2.0299197187        2.4788176681        0.1580892685
 C          0.1020073025        2.0936521069        0.3771012667
 N          0.7009567745        3.2397250814       -0.3244372186
 H          0.1578523465        3.4998460935       -1.1375002855
 H          1.6087948612        2.9198895629       -0.6726214053
 H          0.0107565023        2.3779847784        1.4371062895
 C          1.0485173872        0.8740721881        0.3074418543
 N          2.3836795185        1.1952628550        0.7949029481
 C          3.3910002947        1.6218348900       -0.0424302284
 O          3.1836457055        1.8733407597       -1.2143902413
 C          4.7571054296        1.7864697461        0.5255864267
 H          4.8169093276        1.3880895079        1.5376084037
 H          5.4871987725        1.2656202391       -0.0920366095
 H          5.0299505309        2.8403688236        0.5538474876
 H          2.5717092638        0.9380350583        1.7639917388
 H          1.1453243355        0.6082729795       -0.7510224109
 H         -1.4073719496       -1.5139793334        0.9754443381
 H          0.5371051075       -0.1053648655        2.1425444928
