  43
        -93.46110489
 F         -4.4461260123        1.0201591139        0.7757530586
 C         -3.1966868581        1.5202689417        0.7499619158
 F         -3.2857466212        2.8418642787        0.6840980787
 F         -2.6384356464        1.2001112010        1.9279323265
 C         -2.4220633371        0.9497711425       -0.3897354579
 N         -1.8604094002        1.6025474437       -1.3741479970
 N         -1.2650433500        0.6948639138       -2.1817629101
 C         -1.4792788022       -0.4897187057       -1.6722237718
 N         -2.2179108260       -0.3861558249       -0.5417989916
 C         -2.5166841947       -1.4682130587        0.3838551104
 H         -3.5605577606       -1.3932459292        0.6994233473
 C         -2.2418936210       -2.7955319346       -0.3227839845
 N         -0.9503537245       -2.7118363046       -1.0081231178
 C          0.1484196210       -2.7949832192       -0.1803919589
 O          0.0277250248       -3.2180529243        0.9521712386
 C          1.4867958971       -2.4266531563       -0.7973905764
 H          1.4314420467       -1.4213318963       -1.2218356520
 H          1.6852576691       -3.1283899275       -1.6123849947
 C          2.6589218731       -2.4787978104        0.1928303911
 N          2.8196000353       -3.8311238016        0.6875608850
 H          3.6254070324       -3.8711452312        1.3015485574
 H          1.9952605315       -4.0900838109        1.2209152318
 H          3.5703804693       -2.2139531607       -0.3626264617
 C          2.4927293096       -1.4634230882        1.3545489147
 C          2.4601504236       -0.0542064540        0.8324192297
 C          3.6316332437        0.6301424649        0.5078548011
 C          3.5691224442        1.9061306116       -0.0227316217
 C          2.3465267668        2.5255435142       -0.2523523513
 C          1.1666201326        1.8722657432        0.0574962704
 C          1.2563828779        0.6000612877        0.5952285853
 F          0.1156080376       -0.0352543044        0.8983075288
 H          0.2060817889        2.3341419764       -0.1293353900
 F          2.3045508465        3.7472750360       -0.7720705651
 F          4.7013767139        2.5401282535       -0.3230391899
 H          4.6007545567        0.1752317154        0.6702899451
 H          1.5770821494       -1.6834977160        1.9055074962
 H          3.3411625153       -1.5885136786        2.0324344240
 C         -1.0142372978       -1.8207143166       -2.1633703375
 H         -0.0475793151       -1.7449080763       -2.6608341918
 H         -1.7299082531       -2.2401722820       -2.8806602022
 H         -2.1980459217       -3.6054686007        0.4079142456
 H         -3.0157138868       -3.0143384610       -1.0632379340
 H         -1.8656466727       -1.3579264170        1.2575587331
