43
      -1446.785807357390
 S     2.323452    -1.595201    -0.723902
 O     1.967899    -0.948178    -2.060942
 C     0.723719    -1.921774     0.030826
 N     0.491630    -2.568169     1.134024
 C    -0.880237    -2.485888     1.277773
 C    -1.712039    -2.978813     2.280985
 C    -3.064286    -2.747819     2.183403
 C    -3.614243    -2.034946     1.100005
 C    -2.811965    -1.536033     0.083221
 C    -1.448562    -1.775440     0.201854
 N    -0.385392    -1.438212    -0.594757
 H    -0.350441    -0.898151    -1.444013
 H    -3.212800    -0.988803    -0.755276
 O    -4.969283    -1.886149     1.146124
 C    -5.594686    -1.184968     0.088237
 H    -5.435357    -1.679569    -0.872928
 H    -5.240312    -0.153230     0.023521
 H    -6.655927    -1.182219     0.314627
 H    -3.744793    -3.109022     2.940821
 H    -1.297638    -3.524968     3.116194
 C     2.814139    -0.207461     0.480370
 C     1.876817     0.931339     0.366411
 N     0.837287     0.896461     1.206182
 C    -0.097440     1.830120     1.086347
 C    -0.087682     2.827949     0.120800
 C     1.007135     2.845142    -0.741740
 C     2.035845     1.911678    -0.622311
 C     3.256905     1.991367    -1.482883
 H     3.285414     2.929388    -2.026932
 H     3.290076     1.169420    -2.193858
 H     4.161492     1.938628    -0.877931
 O     1.073040     3.837403    -1.692818
 C     0.664721     3.412361    -2.992882
 H    -0.385088     3.110559    -2.993722
 H     1.269469     2.578939    -3.351722
 H     0.793239     4.265232    -3.652442
 C    -1.175766     3.845145     0.028256
 H    -1.692535     3.801029    -0.930247
 H    -1.912913     3.693824     0.813163
 H    -0.779092     4.855008     0.119196
 H    -0.916949     1.777115     1.795643
 H     2.766894    -0.675835     1.458615
 H     3.840178     0.016244     0.206836
