  33
         -5.86216316
 P          2.9857802904       -0.6983475062       -0.1674154602
 O          2.8140277186        0.2197585196       -1.3695953214
 O          2.0450399300       -1.9940131488       -0.2496866706
 H          1.0974982127       -1.7120076646       -0.2047231327
 O          4.5312180541       -1.1059329343       -0.0198726108
 H          4.8292865168       -1.3432243747       -0.9148475714
 C          2.5335125267        0.2219209958        1.3671721620
 O          1.2349904472        0.7710795699        1.2887742765
 C          1.1305227898        1.9174874170        0.4191277346
 C          0.3962339237        3.0394303904        1.1311866306
 H          0.3099934487        3.9277892886        0.5056249476
 H          0.9046322233        3.3125718805        2.0552787918
 H         -0.6072945145        2.7101233474        1.3966585355
 H          2.1618005959        2.2413539118        0.1997069695
 C          0.4525338048        1.5307672366       -0.8926480691
 N         -0.9482303143        1.1787478757       -0.7062061871
 C         -1.4295721733       -0.0535264403       -0.3100245583
 N         -0.8163127279       -1.2206238518       -0.0818606756
 C         -1.6506399978       -2.1641117979        0.2737464956
 N         -2.9765450452       -2.1482420238        0.4332977456
 C         -3.5878752336       -0.9947426914        0.2022572717
 N         -4.9504211847       -0.8670223628        0.3294497080
 H         -5.5416040903       -1.6720741851        0.4659790825
 H         -5.4443571624       -0.0455244247        0.0140127839
 C         -2.8115490142        0.1172914501       -0.1899018046
 N         -3.1605695312        1.3997163154       -0.4994250222
 C         -2.0495347382        2.0156023143       -0.8030828534
 H         -2.0016078352        3.0544119299       -1.0927817287
 H         -1.1906104828       -3.1232765940        0.4706496026
 H          0.9521077419        0.6573928023       -1.3137419868
 H          0.5175288744        2.3367330650       -1.6269813245
 H          2.5499499690       -0.4755322682        2.2043635037
 H          3.2564864961        1.0129526085        1.5656701962
