43
      -1566.127720865682
 F    -3.679030    -4.044922    -0.273015
 C    -3.818453    -2.752489    -0.561179
 F    -4.622661    -2.644169    -1.654489
 F    -4.486455    -2.156331     0.464798
 C    -2.502068    -2.089927    -0.796166
 N    -1.334446    -2.681180    -0.747888
 N    -0.388589    -1.726138    -1.007854
 C    -1.021521    -0.595360    -1.209936
 N    -2.366918    -0.765497    -1.095011
 C    -3.355913     0.312300    -1.153705
 H    -3.711373     0.515101    -0.146223
 C    -2.698123     1.552846    -1.735860
 N    -1.394494     1.771846    -1.127905
 C    -1.351001     2.462673     0.064579
 O    -2.356405     3.011150     0.506205
 C    -0.045084     2.497587     0.812973
 H    -0.018062     3.429140     1.373329
 H     0.808262     2.489636     0.142347
 C     0.043665     1.332386     1.803845
 N    -0.839471     1.601434     2.930395
 H    -1.720743     1.980554     2.607292
 H    -1.041760     0.748376     3.434891
 H    -0.225323     0.409148     1.269989
 C     1.476054     1.146877     2.321081
 C     2.451542     0.797202     1.240828
 C     2.462039    -0.471361     0.660644
 C     3.330188    -0.785895    -0.363807
 C     4.213580     0.172008    -0.844129
 C     4.230455     1.437915    -0.296909
 C     3.351292     1.723602     0.731094
 F     3.382169     2.975610     1.247997
 H     4.919934     2.183457    -0.661279
 F     5.058108    -0.138499    -1.840582
 F     3.337450    -2.014663    -0.899264
 H     1.778363    -1.236443     0.998382
 H     1.772149     2.055920     2.837062
 H     1.461828     0.351168     3.067168
 C    -0.439192     0.742978    -1.509367
 H    -0.222696     0.830600    -2.576380
 H     0.501840     0.845280    -0.985879
 H    -2.557180     1.444130    -2.810674
 H    -3.327487     2.414672    -1.548991
 H    -4.199461    -0.004404    -1.761188
