  43
         -8.03817878
 S          2.9691535628       -1.7925234838       -0.2647733429
 O          2.9046118068       -1.3886572814       -1.7484449868
 C          1.1801738030       -1.6858088707        0.0264729286
 N          0.6012047504       -1.7730403761        1.2136677717
 C         -0.7284221584       -1.5324010011        1.0094979975
 C         -1.7872867838       -1.4176281246        1.9198558485
 C         -3.0299367641       -1.1013509626        1.4444315497
 C         -3.2824339921       -0.8928915196        0.0662015964
 C         -2.2369199739       -1.0182082971       -0.8428367960
 C         -0.9677042702       -1.3265271929       -0.3691670268
 N          0.2689116083       -1.4508512671       -0.9757895100
 H          0.4933665171       -1.3339304864       -1.9639462298
 H         -2.3851658003       -0.8714108253       -1.8948352141
 O         -4.5904476575       -0.5606597385       -0.2879864767
 C         -4.8102088099       -0.4141142499       -1.6703720648
 H         -4.5690676488       -1.3455823521       -2.1841801669
 H         -4.2066853839        0.4064819266       -2.0587754097
 H         -5.8644916252       -0.1845115990       -1.8292031790
 H         -3.8616083830       -1.0008909105        2.1197406860
 H         -1.6011603627       -1.5667136260        2.9682702556
 C          3.4364946497       -0.1206234904        0.3822352934
 C          2.2750614464        0.7758954483        0.6335361506
 N          1.8148027130        0.7988435411        1.8862905059
 C          0.7118067734        1.4911238148        2.1071865163
 C          0.0076457443        2.1904759441        1.1549541323
 C          0.4966515194        2.1905607077       -0.1533445764
 C          1.6760310468        1.4798512151       -0.4070298546
 C          2.2390973433        1.4977016086       -1.7802229022
 H          1.6297911984        2.1171360936       -2.4387699804
 H          2.2767133126        0.4938518680       -2.2010526311
 H          3.2487230757        1.9082251246       -1.7833743546
 O         -0.1820032144        2.8737335074       -1.1900951236
 C         -1.1988909418        2.0964077058       -1.7905501872
 H         -1.9418596884        1.8208432683       -1.0419979684
 H         -0.7618193187        1.1952319568       -2.2211925806
 H         -1.6744941856        2.6824030460       -2.5768248787
 C         -1.2497382145        2.9004514726        1.4902030402
 H         -2.0845427503        2.2018227753        1.5510296774
 H         -1.1663621466        3.4155332003        2.4474133265
 H         -1.4852241470        3.6453136144        0.7293866442
 H          0.3380578044        1.4814100356        3.1187356977
 H          3.9759238947       -0.2723848663        1.3172255315
 H          4.1361777651        0.3309154317       -0.3194402372
