  40
         -7.48010577
 S          0.7136633285       -0.7256726639        1.3002864262
 C          1.8406285698       -1.6991744668        2.1784605336
 C          2.8136293386       -2.1694003938        1.3699092149
 C          2.6921132031       -1.7148383915        0.0252952735
 C          1.6375449801       -0.8858217064       -0.1777542584
 C          1.3426424841       -0.1856542232       -1.4766330523
 C          2.4717701916        0.7735316428       -1.8913608201
 H          3.4402768172        0.2740971308       -1.7945860717
 H          2.3593460428        1.0102744921       -2.9559019775
 C          2.4622686456        2.0702945352       -1.0885135409
 N          2.7477479293        1.9021890893        0.3348094530
 H          2.1323121095        1.1681513771        0.6994344614
 C          4.1301389585        1.6269320188        0.6891877304
 H          4.4711269960        0.6842594105        0.2612311389
 H          4.2478602777        1.5787912752        1.7726086716
 H          4.7731744011        2.4235539005        0.3174298287
 H          3.1822750975        2.7891343238       -1.4950152625
 H          1.4793167283        2.5460361331       -1.1828508584
 O          0.1075365149        0.5521211973       -1.4353496713
 C         -1.0370075218       -0.1923084718       -1.1551973029
 C         -1.2752432426       -1.4711821441       -1.6246453994
 C         -2.4457184798       -2.1485993206       -1.2938462800
 C         -3.3926535455       -1.5706634376       -0.4946305033
 C         -3.2004849056       -0.2692524081        0.0164964361
 C         -4.1426525560        0.3605222737        0.8611582603
 C         -3.9082795985        1.6110855871        1.3547308345
 C         -2.7264599775        2.2897400420        1.0330696916
 C         -1.8000968826        1.7083204278        0.2166270041
 C         -2.0162878635        0.4269349426       -0.3151441505
 H         -0.8826786398        2.2160095978       -0.0269328831
 H         -2.5487503243        3.2741735681        1.4353870660
 H         -4.6322510624        2.0824506561        2.0000797660
 H         -5.0481031431       -0.1661492025        1.1125413600
 H         -4.2958698213       -2.1003707046       -0.2398475138
 H         -2.6037272760       -3.1441092487       -1.6768259928
 H         -0.5549583379       -1.9444506388       -2.2672493605
 H          1.2272792056       -0.9541410994       -2.2538589954
 H          3.4046957390       -1.9806715753       -0.7419309040
 H          3.6186511065       -2.8128564208        1.6981043489
 H          1.7361639089       -1.9028274344        3.2292026374
