%pal nprocs 16 end
%MaxCore 6000
# put your comments here
! B97-3C  OPT  FREQ DEFGRID3 NOTRAH
%scf MaxIter 800 end
%output
Print [P_Hirshfeld] 1
end
%geom
MaxIter 3000
 TolE 1e-6 #TolE 5e-6 Energy change (a.u.)
 TolRMSG 3e-5 #TolRMSG 1e-4 RMS gradient (a.u.)
 TolMaxG 1e-4 #TolMaxG 3e-3 Max. element of gradient (a.u.)
 TolRMSD 2e-3 #TolRMSD 2e-3 RMS displacement (a.u.)
 TolMaxD 4e-3 #TolMaxD 4e-3 Max. displacement (a.u.)
end
* xyz 0 1
 S   0.329043146001  -1.733855572131   0.847920678448
 C   0.180212165005  -0.111144347556   0.606357353956
 N   1.174967739161   0.794225099676   0.455448085135
 C   2.542975749881   0.431801041012   0.358650165005
 C   2.992976720013  -0.246146586531  -0.762346237319
 C   4.328075263398  -0.570535061169  -0.853326723802
 C   5.260556182551  -0.236562108837   0.125050973222
 C   4.768170300843   0.449909332110   1.233746785227
 C   3.432955301321   0.776179995477   1.364453892374
 H   3.076672182190   1.277267588031   2.250958025198
 H   5.483211412160   0.718319249195   1.996826637338
 C   6.742181762203  -0.515091488206   0.122288463783
 O   7.460170368691   0.008181463304   0.968621087569
 N   7.211592875816  -1.364926588700  -0.820097066884
 H   6.571820684337  -1.743443952449  -1.494641915090
 C   8.609741731892  -1.714764950830  -0.926418650157
 H   9.106211816500  -1.430988410984   0.029123871194
 H   9.093533866433  -1.166075355396  -1.769840655038
 H   8.712269588155  -2.818830778533  -1.090964519903
 F   4.708992917597  -1.241000020197  -1.976312385130
 H   2.313209898979  -0.538691778219  -1.546970258757
 C   0.690361680656   2.149315328355   0.148962784015
 C  -0.815210752014   1.945248543863   0.218118779748
 O  -1.663377116932   2.791940101638   0.061488348861
 N  -1.027900854691   0.601929603224   0.497938776385
 C  -2.314098428403   0.034931657189   0.653467110715
 C  -2.628942658844  -0.688336751058   1.792598224041
 C  -3.893532915364  -1.222785779270   1.927617085114
 C  -4.859124352301  -1.032697116637   0.937814013278
 C  -4.531982865340  -0.287109349689  -0.205351458749
 C  -3.260684095781   0.236428856806  -0.339351371979
 H  -3.003154626687   0.806921335440  -1.215356209182
 C  -5.554580558796  -0.063384298010  -1.290212324089
 F  -6.634371702602   0.600414914994  -0.821488884014
 F  -5.053573495787   0.661635784511  -2.315141841511
 F  -5.990284878191  -1.234611799008  -1.806430943247
 C  -6.142484891419  -1.602496733991   1.141598156950
 N  -7.174829716826  -2.084723253743   1.354454944645
 H  -4.150582359779  -1.791173974802   2.808314347141
 H  -1.889757573485  -0.835688570832   2.563177634800
 C   1.084219241586   2.577056608820  -1.258846320300
 H   0.608266293042   3.524994039668  -1.493490531087
 H   0.770968657345   1.841053054997  -1.996109501327
 H   2.162314719557   2.699058106405  -1.327307356151
 C   1.116736048368   3.175567367234   1.187644649355
 H   2.185342561745   3.361539078477   1.122530959435
 H   0.878001626687   2.838580923356   2.194039835010
 H   0.590461114479   4.108313718660   1.003221231765
*



