40
      -1668.021738224395
 S     4.753523     1.290109     0.000971
 O     5.143457     1.887758     1.288328
 O     5.359872     0.057892    -0.529036
 N     4.947074     2.490597    -1.198060
 H     5.354343     3.310577    -0.766329
 H     5.564006     2.125601    -1.912749
 C     2.974824     1.052292     0.031289
 C     2.204547     1.802340     0.904433
 C     0.836739     1.605588     0.938550
 C     0.257358     0.666275     0.095611
 C     1.034396    -0.070451    -0.789426
 C     2.403302     0.117349    -0.815194
 H     3.024431    -0.459828    -1.483218
 H     0.572326    -0.784635    -1.452252
 N    -1.143838     0.478360     0.139560
 C    -1.858177    -0.690950     0.039419
 C    -3.183596    -0.317585     0.045079
 C    -3.169385     1.074914     0.171018
 N    -1.937642     1.561875     0.227610
 C    -4.339445     2.001882     0.204796
 F    -4.218636     2.949097     1.157452
 F    -5.481455     1.313580     0.450849
 F    -4.511543     2.644942    -0.976948
 H    -4.033814    -0.973816     0.023724
 C    -1.279948    -2.028261     0.030608
 C    -1.748966    -2.982140    -0.869647
 C    -1.225579    -4.263775    -0.874840
 C    -0.221701    -4.636825     0.013652
 C     0.239351    -3.678507     0.915109
 C    -0.280269    -2.398932     0.930886
 H     0.088657    -1.681159     1.649840
 H     1.015621    -3.942469     1.622061
 C     0.329159    -6.028186     0.024295
 H     1.404100    -6.031348     0.195853
 H    -0.123683    -6.620172     0.821401
 H     0.134451    -6.543737    -0.913274
 H    -1.599684    -4.985733    -1.589479
 H    -2.514613    -2.708935    -1.583163
 H     0.210721     2.174128     1.608577
 H     2.675266     2.511616     1.568257
