26
      -315.550953500183
 C    -4.460801    -0.265253    -0.000026
 H    -4.529826    -0.907192    -0.878903
 H    -4.529828    -0.907348     0.878737
 C    -3.165888     0.529211     0.000045
 H    -3.140861     1.187975    -0.872139
 H    -3.140879     1.187848     0.872326
 H    -5.332937     0.387920     0.000031
 C    -1.922779    -0.346576    -0.000006
 H    -1.947209    -1.006395     0.872506
 H    -1.947231    -1.006328    -0.872567
 C    -0.620971     0.438446     0.000008
 H    -0.597102     1.097899    -0.872596
 H    -0.597130     1.097927     0.872591
 C     0.620955    -0.438464     0.000037
 H     0.597138    -1.097973    -0.872525
 H     0.597154    -1.097891     0.872662
 C     1.922762     0.346560    -0.000009
 H     1.947250     1.006396     0.872488
 H     1.947246     1.006293    -0.872584
 C     3.165873    -0.529226     0.000034
 H     3.140890    -1.187900     0.872288
 H     3.140911    -1.187956    -0.872177
 C     4.460788     0.265254     0.000030
 H     5.332918    -0.387928    -0.000047
 H     4.529859     0.907217     0.878885
 H     4.529787     0.907316    -0.878760
