48
      -1325.572793078734
Cl     4.880547    -1.850515     0.100928
 N    -2.303454    -1.530290     0.125104
 N    -1.184922     1.226201     0.157539
 N     2.746017     2.741868    -0.124403
 C    -3.569327     1.391319     0.755396
 C    -4.204460     0.142365     0.138812
 C    -2.375770     2.047487     0.059536
 C    -3.648089    -1.197174     0.594738
 C    -2.677014     2.451379    -1.380543
 C    -2.216357    -1.697185    -1.332525
 C    -1.766424    -2.692491     0.845341
 C     0.074041     1.712900     0.047082
 C     1.209830     0.833816     0.058050
 C    -3.058896    -2.796721    -1.962640
 C    -1.377749    -2.395673     2.281105
 C     0.355556     3.071529    -0.065192
 C     2.511063     1.407574    -0.026796
 C     1.099991    -0.562332     0.146911
 C     1.676224     3.510219    -0.139528
 C     3.634892     0.555472    -0.010930
 C     2.201893    -1.377612     0.161219
 C     3.472572    -0.797500     0.081557
 H    -3.287136     1.178961     1.788802
 H    -4.337792     2.163636     0.808771
 H    -4.220342     0.208394    -0.948429
 H    -5.256395     0.132350     0.429731
 H    -2.186725     2.961734     0.627466
 H    -3.619642    -1.188955     1.682268
 H    -4.361136    -1.987195     0.320709
 H    -1.350456     0.221694     0.224065
 H    -3.546038     3.107412    -1.426528
 H    -2.874269     1.582452    -2.004320
 H    -1.832604     2.976840    -1.818998
 H    -2.464653    -0.742337    -1.792781
 H    -1.165586    -1.867377    -1.567824
 H    -2.472499    -3.534302     0.824490
 H    -0.882921    -3.027907     0.301609
 H    -4.125818    -2.628685    -1.828860
 H    -2.868745    -2.830925    -3.034401
 H    -2.819845    -3.778200    -1.557525
 H    -0.703059    -1.544552     2.338612
 H    -2.237923    -2.188087     2.913746
 H    -0.868450    -3.258088     2.708511
 H    -0.430151     3.809492    -0.089776
 H     0.126457    -1.018769     0.208562
 H     1.860432     4.577495    -0.219591
 H     4.612241     1.008048    -0.074629
 H     2.100701    -2.450400     0.232595
